
Gurobi 9.0.3 (mac64) logging started Mon Oct 26 19:37:20 2020

Gurobi Optimizer version 9.0.3 build v9.0.3rc0 (mac64)
Optimize a model with 227199 rows, 169648 columns and 764416 nonzeros
Model fingerprint: 0x81c07e03
Coefficient statistics:
  Matrix range     [1e+00, 2e+03]
  Objective range  [1e+00, 1e+00]
  Bounds range     [1e+00, 1e+00]
  RHS range        [1e+00, 3e+00]

Concurrent LP optimizer: dual simplex and barrier
Showing barrier log only...

Presolve removed 83 rows and 1 columns
Presolve time: 2.86s
Presolved: 227116 rows, 169647 columns, 763113 nonzeros

Elapsed ordering time = 5s
Elapsed ordering time = 10s
Elapsed ordering time = 15s
Elapsed ordering time = 20s
Elapsed ordering time = 25s
Elapsed ordering time = 30s
Elapsed ordering time = 34s
Elapsed ordering time = 35s
Elapsed ordering time = 40s
Elapsed ordering time = 45s
Elapsed ordering time = 47s
Elapsed ordering time = 50s
Elapsed ordering time = 55s
Elapsed ordering time = 60s
Elapsed ordering time = 63s
Elapsed ordering time = 65s
Elapsed ordering time = 70s
Ordering time: 73.89s

Barrier statistics:
 AA' NZ     : 7.770e+06
 Factor NZ  : 1.547e+08 (roughly 1.4 GBytes of memory)
 Factor Ops : 4.404e+11 (roughly 20 seconds per iteration)
 Threads    : 1

                  Objective                Residual
Iter       Primal          Dual         Primal    Dual     Compl     Time
   0   5.98935053e+05 -1.09249978e+06  5.91e+05 4.16e-02  1.24e+02   115s

Barrier performed 0 iterations in 130.41 seconds
Barrier solve interrupted - model solved by another algorithm


Solved with dual simplex
Solved in 33341 iterations and 130.75 seconds
Optimal objective  2.385995338e+02
